NAME : mtspf.pid3549.gtsp.123480459.tour
COMMENT : Length = 123480459
COMMENT : Found by LKH [Keld Helsgaun] Sat Jan  4 16:54:34 2025
TYPE : TOUR
DIMENSION : 83
TOUR_SECTION
1
18
19
16
17
7
4
5
6
2
51
48
49
50
58
59
56
57
12
13
14
15
39
36
37
38
26
27
24
25
71
68
69
70
3
34
35
32
33
30
31
28
29
61
62
63
60
44
45
46
47
76
77
78
79
43
40
41
42
72
73
74
75
82
83
80
81
55
52
53
54
66
67
64
65
8
9
10
11
20
21
22
23
-1
EOF
